(set-info :smt-lib-version 2.6)
(set-logic QF_S)
(set-info :source |
Generated by: Oliver Markgraf, Hongjian Jiang, Daniel Stan, Anthony W. Lin, Philipp Ruemmer
Generated on: 2025-04-08
Application: Using String Solvers to solve RMC problems encoded as CHC over Strings
Target solver: cvc5, OSTRICH, Z3, Z3alpha, Z3-noodler
Time limit: 60.0
Benchmarks are extracted by running HornStr https://arg-git.informatik.uni-kl.de/pub/string-chc-lib on all benchmarks
provided in the repository and gathering the string queries sent to the string solvers.
|)
(set-info :license "https://creativecommons.org/licenses/by/4.0/")
(set-info :category "industrial")
(declare-fun X () String)
(assert (str.in_re X (re.* (re.union (str.to_re "1") (str.to_re "0")))))
(declare-fun Z () String)
(declare-fun Y () String)
(assert (and true (= X (str.++ Z "0")) (= Y (str.++ "0" Z))))
(set-info :status unknown)
(check-sat)
(set-info :status unknown)
(check-sat)
(exit)
